(set-logic QF_NRA)
(declare-fun x () Real)
(declare-fun y () Real)
(declare-fun x1 () Real)
(declare-fun x2 () Real)
(declare-fun y2 () Real)
(assert (and (= x (- (* x1 x2) y2)) (= y (+ (+ (* x1 y2) x) 2)) (<= 0 x1) (<= x1 2) (<= 2 x2) (<= x2 4) (<= -1 y2) (<= y2 1) (<= -1 x) (<= x 9) (<= -6 y) (<= y 6)))
(eliminate-quantifiers (exists x1 x2 y2))
(exit)
